NAME : XML100_3275_02
DIMENSION : 101
NB_CLUSTERS : 5
CLUSTERING_ALG : KMedoids
CLUSTERING_PARAMS : k(4)
CLUSTERS
1 0
2 4 23 24 30 33 37 42 48 51 59 64 68
3 2 7 12 13 14 16 17 18 19 22 25 31 32 35 36 38 41 43 46 49 52 56 57 60 65 66 71 73 74 76 77 78 82 86 87 88 89 91 94 95 96 97 100
4 1 3 8 9 11 20 21 28 39 44 45 47 53 67 72 79 80 83 85 90 92 93 98 99
5 5 6 10 15 26 27 29 34 40 50 54 55 58 61 62 63 69 70 75 81 84
EOF